Route 1 :
[1,4,169,45,256,34,286,347,178,309,238,51,244,88,252,185,127,153,71,41,343,65,84,398,197,369,95,53,190,308,159,85,359,156,392,287,315,225,261,102,383,232,90,121,375,79,349,229,175,145,181,44,128,8,335,149,91,83,50,394,18,305,233,182,217,188,267,172,134,364,70,81,241,94,235,333,61,194,105,355,248,318,170,218,27,126,376,43,12,321,63,297,220,231,291,370,143,104,99,386,270,82,326,106,274,368,166,20,227,215,66,257,22,367,358,203,401]

Route 2 :
[1,275,56,273,339,157,92,108,354,360,299,385,139,2,122,265,382,73,212,5,281,226,228,80,260,280,141,14,52,353,255,266,135,93,330,387,195,314,390,116,332,132,11,100,363,245,224,59,32,362,254,62,329,345,60,148,293,110,344,327,158,307,130,311,251,113,350,101,396,320,68,253,124,48,206,123,47,7,64,160,107,196,118,21,15,301,26,328,167,164,173,13,317,268,17,186,67,205,357,234,395,199,77,284,211,155,202,214,285,216,336,129,120,247,222,115,304,9,201,401]
